
List of user-set options:

                                    Name   Value                used
                           linear_solver = ma57                  yes
                  ma57_automatic_scaling = yes                   yes
                                max_iter = 1000                  yes
                             mu_strategy = adaptive              yes
                             output_file = Reusable-Launch-Vehicle-Entry-ProblemIPOPTinfo.txt  yes
                             print_level = 5                     yes
                      print_user_options = yes                   yes
                                     tol = 1e-007                yes
This is Ipopt version 3.11.0, running with linear solver ma57.

Number of nonzeros in equality constraint Jacobian...:    38758
Number of nonzeros in inequality constraint Jacobian.:     2060
Number of nonzeros in Lagrangian Hessian.............:     7303

Reallocating memory for MA57: lfact (445843)
Total number of variables............................:     1881
                     variables with only lower bounds:        0
                variables with lower and upper bounds:     1881
                     variables with only upper bounds:        0
Total number of equality constraints.................:     1505
Total number of inequality constraints...............:      565
        inequality constraints with only lower bounds:        0
   inequality constraints with lower and upper bounds:      565
        inequality constraints with only upper bounds:        0

iter    objective    inf_pr   inf_du lg(mu)  ||d||  lg(rg) alpha_du alpha_pr  ls
   0 2.1736315e+008 1.22e+001 1.00e+002   0.0 0.00e+000    -  0.00e+000 0.00e+000   0
   1 2.1652464e+008 1.19e+001 2.75e+003  -0.6 1.83e+001  -4.0 2.00e-001 1.65e-002f  1
   2 2.1153451e+008 7.96e+000 3.31e+003   0.9 7.70e+001    -  2.82e-002 1.94e-002f  1
   3r2.1153451e+008 7.96e+000 9.95e+002   1.1 0.00e+000  16.9 0.00e+000 4.77e-007R 22
   4r2.0656126e+008 6.11e+000 1.55e+003   1.1 4.66e+002    -  3.67e-002 5.09e-003f  1
   5 2.0543135e+008 6.66e+000 2.30e+003  -0.1 7.45e+000    -  4.68e-001 1.09e-002h  1
   6 2.0169631e+008 7.00e+000 9.93e+003   0.4 1.41e+001    -  3.16e-001 3.39e-002f  1
   7 1.9921137e+008 8.69e+000 2.49e+004   0.8 3.92e+001    -  1.18e-001 2.14e-002f  1
   8 1.9686392e+008 8.48e+000 4.02e+004   1.7 1.03e+002    -  3.14e-002 9.62e-003f  1
   9 1.9264766e+008 9.21e+000 2.57e+006   2.1 1.95e+002    -  1.00e+000 1.70e-002f  1
iter    objective    inf_pr   inf_du lg(mu)  ||d||  lg(rg) alpha_du alpha_pr  ls
  10 1.9289415e+008 9.43e+000 3.50e+006  -3.9 8.87e+001    -  3.60e-002 5.12e-003h  3
  11 1.9289160e+008 9.46e+000 1.54e+007   3.7 3.41e+002    -  8.96e-002 1.84e-003f  4
  12 1.9295330e+008 9.49e+000 2.32e+007   3.7 1.20e+002    -  2.71e-002 1.93e-003h  5
  13 1.9295586e+008 9.52e+000 3.23e+007   2.7 1.16e+002    -  2.87e-002 1.88e-003h  5
  14 1.9293352e+008 9.45e+000 1.89e+008   3.7 1.10e+002    -  2.62e-001 1.73e-003h  5
  15 1.9294600e+008 9.39e+000 2.60e+008   3.7 1.32e+002    -  2.95e-002 1.92e-003h  5
  16 1.9291914e+008 9.39e+000 6.35e+008   3.7 1.12e+002    -  7.06e-002 1.58e-003h  5
  17 1.9293748e+008 9.40e+000 1.34e+009   3.7 1.57e+002    -  3.25e-002 8.83e-004h  6
  18 1.9300262e+008 9.41e+000 1.97e+009   3.7 1.67e+002    -  1.62e-002 1.88e-003h  5
  19 1.9301889e+008 9.41e+000 2.67e+009   3.7 1.47e+002    -  1.54e-002 4.95e-004h  5
iter    objective    inf_pr   inf_du lg(mu)  ||d||  lg(rg) alpha_du alpha_pr  ls
  20 1.9304223e+008 9.41e+000 6.25e+009   3.7 1.54e+002    -  3.47e-002 1.57e-003h  5
  21 1.9307792e+008 9.41e+000 1.39e+010   3.7 1.66e+002    -  3.38e-002 1.33e-003h  5
  22 1.9312687e+008 9.42e+000 3.89e+010   3.7 1.77e+002    -  5.11e-002 1.18e-003h  5
  23 1.9314064e+008 9.42e+000 6.54e+010   3.7 1.94e+002    -  2.11e-002 6.32e-004h  6
  24 1.9310265e+008 9.42e+000 7.96e+010   3.7 1.96e+002    -  2.79e-002 2.06e-002w  1
  25 1.9307203e+008 9.43e+000 3.83e+013   3.7 5.03e+000  16.4 1.11e-002 2.94e-004w  1
Reallocating memory for MA57: lfact (470183)
  26r1.9307203e+008 9.43e+000 9.89e+002   3.0 0.00e+000  15.9 0.00e+000 3.91e-007R  4
  27r1.9398150e+008 9.24e+000 6.74e+004   2.5 6.55e+000    -  3.54e-001 5.59e-003f  1
  28r1.8134369e+008 2.57e+000 2.54e+004   0.8 3.53e+000    -  6.93e-001 6.18e-001f  1
  29 1.7960859e+008 2.77e+000 1.05e+003  -0.5 7.01e+000    -  1.52e-001 1.77e-002f  1
iter    objective    inf_pr   inf_du lg(mu)  ||d||  lg(rg) alpha_du alpha_pr  ls
  30 1.7823456e+008 2.93e+000 6.15e+003   0.4 1.44e+001    -  1.36e-001 1.30e-002f  1
  31 1.7640597e+008 2.87e+000 1.71e+004   0.6 1.52e+001    -  3.40e-001 2.17e-002f  1
  32 1.7446548e+008 3.60e+000 5.26e+004   2.3 3.96e+002    -  2.07e-002 9.36e-003f  1
  33 1.7444181e+008 4.93e+000 2.46e+007   2.9 6.16e+002    -  9.20e-001 9.67e-003f  1
  34 1.7753803e+008 4.76e+000 1.65e+007  -3.2 5.74e+001    -  1.50e-002 3.39e-002h  1
  35 1.7721987e+008 4.74e+000 2.02e+007   2.7 2.10e+002    -  8.07e-003 4.29e-003h  1
  36 1.7709409e+008 4.74e+000 4.12e+007   2.7 2.60e+002    -  2.05e-002 1.38e-003h  1
  37 1.7666630e+008 4.71e+000 7.86e+007   2.7 2.73e+002    -  3.31e-002 5.74e-003h  3
  38 1.7630542e+008 4.69e+000 1.19e+008   2.7 2.64e+002    -  3.25e-002 4.76e-003h  3
  39 1.7603327e+008 4.67e+000 1.23e+008   2.7 2.34e+002    -  2.48e-002 4.18e-003h  3
iter    objective    inf_pr   inf_du lg(mu)  ||d||  lg(rg) alpha_du alpha_pr  ls
  40 1.7590225e+008 4.66e+000 1.17e+008   2.7 3.49e+002    -  5.55e-003 2.00e-003h  4
  41 1.7575891e+008 4.65e+000 1.04e+008   2.7 4.02e+002    -  9.11e-003 1.85e-003h  4
  42 1.7575389e+008 4.65e+000 6.58e+011   2.7 5.51e+000  15.5 2.91e-003 4.15e-005h  1
  43r1.7575389e+008 4.65e+000 9.97e+002   2.0 0.00e+000  15.0 0.00e+000 2.09e-007R  2
  44r1.7376839e+008 3.42e+000 5.90e+003   1.5 7.45e+001    -  1.42e-001 3.72e-002f  1
  45 1.7320141e+008 3.41e+000 9.94e+001  -5.3 5.78e+000    -  6.15e-002 5.51e-003h  1
  46 1.7312694e+008 3.40e+000 2.30e+002  -5.4 8.97e+000    -  1.56e-002 7.98e-004h  1
  47 1.7276810e+008 3.40e+000 3.11e+003   0.1 4.76e+001    -  5.80e-002 3.15e-003h  1
  48 1.7181086e+008 3.52e+000 9.90e+003  -5.4 1.24e+002    -  8.11e-003 1.09e-002h  1
  49 1.7180886e+008 3.52e+000 3.59e+010   0.9 5.70e+000  14.5 1.00e+000 1.97e-005h  1
iter    objective    inf_pr   inf_du lg(mu)  ||d||  lg(rg) alpha_du alpha_pr  ls
  50r1.7180886e+008 3.52e+000 9.96e+002   2.9 0.00e+000  14.0 0.00e+000 1.01e-007R  2
  51r1.3033598e+008 3.30e+000 6.93e+002  -3.5 6.86e+000    -  3.19e-001 3.27e-001f  1
  52r9.9458624e+007 1.16e+000 1.17e+003  -3.6 1.93e+000    -  6.55e-003 6.15e-001f  1
  53 9.9436577e+007 1.16e+000 9.99e+001  -5.3 8.86e+000    -  5.05e-002 5.18e-004h  1
  54 9.9145659e+007 1.15e+000 3.47e+002  -0.1 1.00e+001    -  1.01e-001 6.73e-003f  1
  55 9.7793551e+007 1.12e+000 1.31e+003  -0.0 1.39e+001    -  2.03e-001 2.87e-002f  1
  56 9.6882918e+007 1.10e+000 2.59e+003  -0.7 2.42e+001    -  7.66e-002 1.85e-002h  1
  57 9.6791308e+007 1.09e+000 3.71e+003   1.1 2.27e+002    -  7.32e-003 3.88e-003f  1
  58 9.6980294e+007 1.09e+000 3.28e+004   2.2 1.50e+003    -  8.79e-003 2.88e-003f  1
  59 9.7099359e+007 1.08e+000 2.71e+005   2.7 2.60e+003    -  2.24e-002 3.94e-003f  1
iter    objective    inf_pr   inf_du lg(mu)  ||d||  lg(rg) alpha_du alpha_pr  ls
  60 9.7119691e+007 1.08e+000 3.59e+005   1.1 3.52e+002    -  2.64e-002 6.96e-004h  4
  61 9.7125731e+007 1.08e+000 5.29e+005   1.1 3.57e+002    -  9.41e-003 4.21e-004h  5
  62 9.7131888e+007 1.08e+000 8.04e+005   1.1 3.42e+002    -  9.86e-003 9.66e-004h  4
  63 9.7137019e+007 1.08e+000 1.02e+006   1.1 3.46e+002    -  5.43e-003 9.98e-004h  4
  64 9.7142290e+007 1.08e+000 1.92e+006   1.1 3.47e+002    -  1.26e-002 2.12e-004h  6
  65r9.7142290e+007 1.08e+000 9.99e+002   1.1 0.00e+000    -  0.00e+000 4.95e-007R 15
  66r9.8628393e+007 1.02e+000 7.04e+003   2.0 4.42e+002    -  3.73e-002 7.73e-003f  1
  67 9.8608886e+007 1.02e+000 9.97e+001   1.1 2.36e+002    -  2.50e-003 2.37e-004f  1
  68 9.8501432e+007 1.02e+000 9.27e+002   1.1 5.59e+001    -  1.23e-002 1.51e-003f  1
  69 9.8412470e+007 1.01e+000 2.27e+004   1.1 6.11e+001    -  7.19e-002 3.30e-003h  1
iter    objective    inf_pr   inf_du lg(mu)  ||d||  lg(rg) alpha_du alpha_pr  ls
  70 9.8427743e+007 1.01e+000 5.76e+004   1.1 2.07e+002    -  1.77e-002 6.48e-004h  4
  71 9.8439144e+007 1.01e+000 1.23e+005   1.1 1.92e+002    -  1.60e-002 7.75e-004h  4
  72r9.8439144e+007 1.01e+000 9.99e+002   1.1 0.00e+000    -  0.00e+000 4.21e-007R 15
  73r9.7178343e+007 5.24e-001 2.49e+003   1.2 5.34e+001    -  7.73e-002 1.52e-002f  1
  74 9.7173146e+007 5.24e-001 1.43e+002   1.1 2.40e+002    -  2.54e-003 7.39e-005h  1
  75 9.7128755e+007 5.23e-001 1.78e+004   1.1 5.93e+001    -  8.28e-002 1.27e-003h  1
  76 9.7136896e+007 5.23e-001 6.17e+004   1.1 1.87e+002    -  2.52e-002 2.81e-004h  5
  77r9.7136896e+007 5.23e-001 9.99e+002   1.1 0.00e+000    -  0.00e+000 3.69e-007R 15
  78r8.9631143e+007 4.28e-001 2.93e+003   0.4 1.04e+001    -  2.18e-001 4.70e-002f  1
  79 8.9600403e+007 4.27e-001 1.67e+002  -1.4 5.39e+000    -  1.33e-001 8.97e-004h  1
iter    objective    inf_pr   inf_du lg(mu)  ||d||  lg(rg) alpha_du alpha_pr  ls
  80 8.9623737e+007 4.27e-001 9.97e+003   0.6 5.34e+001    -  5.05e-002 1.11e-003h  1
  81 8.9661033e+007 4.27e-001 3.50e+004   0.9 2.79e+002    -  3.09e-002 4.35e-004h  3
  82 8.9675770e+007 4.26e-001 1.78e+005   1.6 8.72e+002    -  6.56e-002 2.35e-004h  5
  83 8.9679625e+007 4.26e-001 1.27e+007   2.3 7.87e+002    -  1.00e+000 8.71e-005h  7
  84 8.9680449e+007 4.26e-001 2.94e+007   3.7 6.08e+002    -  1.91e-002 3.19e-005h  9
  85r8.9680449e+007 4.26e-001 9.99e+002   3.7 0.00e+000    -  0.00e+000 2.71e-007R 16
  86r8.9251126e+007 3.54e-001 9.09e+001  -2.6 4.74e+000    -  9.09e-001 9.80e-001f  1
  87 8.9247079e+007 3.54e-001 1.43e+003  -1.2 4.26e+000    -  1.38e-001 1.28e-004h  1
  88 8.9289253e+007 3.54e-001 1.74e+004   1.1 1.82e+002    -  2.78e-002 4.69e-004h  1
  89 8.9524950e+007 3.52e-001 2.91e+004  -0.2 6.54e+002    -  1.36e-002 4.01e-003h  1
iter    objective    inf_pr   inf_du lg(mu)  ||d||  lg(rg) alpha_du alpha_pr  ls
  90 8.9539689e+007 3.52e-001 1.79e+005   1.7 1.74e+003    -  4.52e-002 3.08e-004f  5
  91 8.9545467e+007 3.52e-001 2.85e+005   0.7 1.33e+003    -  9.23e-003 1.75e-004h  6
  92 8.9561242e+007 3.52e-001 4.06e+005   0.7 1.24e+003    -  7.27e-003 7.14e-004h  4
  93 8.9579799e+007 3.52e-001 7.99e+005   0.7 1.19e+003    -  1.40e-002 1.27e-003h  3
  94r8.9579799e+007 3.52e-001 9.99e+002   2.5 0.00e+000    -  0.00e+000 4.96e-007R 14
  95r9.6350721e+007 4.94e-001 6.50e+002   0.1 2.75e+000    -  6.78e-001 7.58e-001f  1
  96r6.4324506e+007 4.09e-001 2.89e+002  -4.4 1.49e+000    -  6.73e-001 5.80e-001f  1
  97r7.8963130e+007 4.08e-001 7.70e+002  -0.1 1.44e-001   2.0 8.34e-001 7.53e-001f  1
  98 7.8473196e+007 4.04e-001 9.88e+001  -5.3 8.67e+000    -  2.20e-001 1.09e-002h  1
  99 7.8088446e+007 4.00e-001 2.93e+003  -0.2 3.45e+001    -  1.30e-001 7.66e-003f  2
iter    objective    inf_pr   inf_du lg(mu)  ||d||  lg(rg) alpha_du alpha_pr  ls
 100 7.7998620e+007 4.00e-001 6.66e+003  -0.2 3.37e+001    -  1.55e-001 1.75e-003h  4
 101 7.7809895e+007 3.98e-001 3.80e+004   0.7 3.58e+001    -  3.31e-001 3.41e-003h  3
 102 7.7646211e+007 3.97e-001 1.24e+005   1.6 2.37e+002    -  1.06e-001 3.59e-003h  3
 103 7.7644060e+007 3.97e-001 6.83e+006   2.2 5.69e+002    -  1.00e+000 6.49e-005h  9
 104r7.7644060e+007 3.97e-001 9.99e+002   3.7 0.00e+000    -  0.00e+000 2.71e-007R 17
 105r7.7031588e+007 3.48e-001 8.85e+001  -2.7 4.81e+000    -  9.52e-001 9.74e-001f  1
 106r6.4274226e+007 3.58e-001 1.18e+003  -0.3 8.55e-001    -  8.93e-001 3.89e-001f  1
 107 6.3904034e+007 3.54e-001 7.32e+002  -1.4 9.10e+000    -  2.38e-001 1.22e-002h  1
 108 6.3566940e+007 3.50e-001 3.92e+003   0.2 2.57e+001    -  1.13e-001 9.58e-003h  1
 109 6.3287421e+007 3.48e-001 9.90e+004   1.4 1.03e+002    -  2.41e-001 5.00e-003f  1
iter    objective    inf_pr   inf_du lg(mu)  ||d||  lg(rg) alpha_du alpha_pr  ls
 110 6.3333029e+007 3.48e-001 8.15e+006   2.7 4.25e+002    -  1.00e+000 1.81e-003f  2
 111 6.3355429e+007 3.48e-001 1.14e+007   2.6 4.78e+002    -  1.22e-002 3.83e-004h  6
 112 6.3372865e+007 3.48e-001 1.55e+007   2.6 7.08e+002    -  6.99e-003 2.52e-004h  6
 113 6.3388191e+007 3.47e-001 2.89e+007   2.6 9.13e+002    -  1.43e-002 1.96e-004h  7
 114 6.3400461e+007 3.47e-001 3.53e+007   2.6 9.74e+002    -  4.20e-003 1.68e-004h  7
 115 6.3411457e+007 3.47e-001 5.80e+007   2.6 9.89e+002    -  1.17e-002 1.66e-004h  7
 116 6.3414005e+007 3.47e-001 7.06e+007   2.6 9.87e+002    -  4.06e-003 4.43e-005h  9
 117 6.3414326e+007 3.47e-001 1.16e+008   2.6 9.81e+002    -  1.20e-002 5.89e-006h 12
 118r6.3414326e+007 3.47e-001 9.99e+002   2.6 0.00e+000    -  0.00e+000 3.72e-007R 16
 119r6.3407282e+007 3.60e-001 1.96e+002  -3.4 5.28e-001    -  9.04e-001 8.86e-001f  1
iter    objective    inf_pr   inf_du lg(mu)  ||d||  lg(rg) alpha_du alpha_pr  ls
 120r6.2019810e+007 3.64e-001 2.40e+003  -0.4 4.47e-001    -  8.88e-001 4.88e-001f  1
 121r5.6634614e+007 3.99e-001 1.25e+003  -0.5 2.76e+000    -  8.01e-001 7.77e-001f  1
 122r6.1048860e+007 5.77e+000 6.98e+003  -5.5 7.40e+000    -  3.78e-001 1.59e-001f  1
 123r7.3272308e+007 4.88e+001 9.88e+006  -0.6 1.94e-002   4.0 1.00e+000 6.31e-001f  1
 124r7.3486510e+007 9.29e+001 9.67e+006   1.5 2.51e-002   6.2 1.00e+000 4.87e-002f  1
 125r7.3644362e+007 9.08e+001 8.19e+006   1.4 1.96e-002   5.8 1.55e-001 2.72e-002f  1
 126r7.5964097e+007 6.84e+000 2.76e+006   1.4 5.94e+000    -  1.10e-001 3.93e-001f  1
 127r6.3789783e+007 3.95e-001 2.09e+007   2.3 3.65e-001   5.3 4.39e-001 1.00e+000f  1
 128r6.3707683e+007 3.96e-001 2.13e+007   4.2 5.94e-002   7.5 4.81e-001 2.55e-002f  1
 129r5.2741316e+007 3.98e-001 5.38e+006   3.7 1.20e-002   7.9 1.00e+000 1.00e+000f  1
iter    objective    inf_pr   inf_du lg(mu)  ||d||  lg(rg) alpha_du alpha_pr  ls
 130r5.8110637e+007 4.19e-001 3.53e+007   4.3 3.79e-002   7.5 7.51e-001 1.00e+000f  1
 131r8.0124655e+007 4.16e-001 2.49e+007   4.2 2.20e-002   8.8 1.00e+000 1.00e+000f  1
 132r7.9316307e+007 7.36e-001 2.33e+009   3.5 6.69e-002   9.2 4.62e-001 5.00e-001f  2
 133r7.7843006e+007 4.29e-001 2.43e+010   3.5 4.65e-002   9.6 7.21e-001 1.00e+000f  1
 134r7.8354929e+007 4.29e-001 7.99e+009   2.0 5.12e-004  11.9 1.00e+000 1.00e+000h  1
 135r7.8358578e+007 4.29e-001 9.56e+008   0.3 3.58e-005  11.4 1.00e+000 1.00e+000h  1
 136r7.8358778e+007 4.29e-001 6.51e+006  -1.5 2.10e-006  10.9 1.00e+000 1.00e+000f  1
 137r7.8358762e+007 4.29e-001 1.44e+003  -3.4 5.23e-008  10.4 1.00e+000 1.00e+000f  1
 138r7.8358762e+007 4.29e-001 1.00e+003  -5.3 1.09e-007  10.0 1.00e+000 1.00e+000f  1
 139r7.8358762e+007 4.29e-001 1.00e+003  -7.2 3.26e-007   9.5 1.00e+000 1.00e+000f  1
iter    objective    inf_pr   inf_du lg(mu)  ||d||  lg(rg) alpha_du alpha_pr  ls
 140r7.8358762e+007 4.29e-001 1.00e+003  -9.0 9.79e-007   9.0 1.00e+000 1.00e+000f  1
 141r7.8358762e+007 4.29e-001 1.00e+003  -9.0 2.94e-006   8.5 1.00e+000 1.00e+000f  1
 142r7.8358762e+007 4.29e-001 1.00e+003  -9.0 8.81e-006   8.1 1.00e+000 1.00e+000f  1
 143r7.8358762e+007 4.29e-001 1.00e+003  -9.0 2.64e-005   7.6 1.00e+000 1.00e+000f  1
 144r7.8358762e+007 4.29e-001 1.00e+003  -9.0 7.93e-005   7.1 1.00e+000 1.00e+000f  1
 145r7.8358762e+007 4.29e-001 1.00e+003  -9.0 2.38e-004   6.6 1.00e+000 1.00e+000f  1
 146r7.8358762e+007 4.29e-001 1.00e+003  -9.0 7.14e-004   6.1 1.00e+000 1.00e+000f  1
 147r7.8358762e+007 4.29e-001 1.00e+003  -9.0 2.14e-003   5.7 1.00e+000 1.00e+000f  1
 148r7.8358762e+007 4.29e-001 1.00e+003  -9.0 6.42e-003   5.2 1.00e+000 1.00e+000f  1
 149r7.8358762e+007 4.29e-001 1.00e+003  -9.0 1.93e-002   4.7 1.00e+000 8.69e-001f  1
iter    objective    inf_pr   inf_du lg(mu)  ||d||  lg(rg) alpha_du alpha_pr  ls
 150r7.8358762e+007 4.29e-001 1.00e+003  -9.0 5.78e-002   4.2 1.00e+000 2.90e-003f  1
 151r7.9094578e+007 4.33e-001 1.00e+003  -9.0 1.27e+010    -  1.68e-010 3.15e-011f  1
 152r7.9094585e+007 4.33e-001 1.00e+003  -7.3 1.80e-001   3.8 1.00e+000 9.73e-006f  1
 153r7.9097706e+007 4.33e-001 1.00e+003  -6.3 5.29e-001   3.3 1.00e+000 4.31e-003f  1
 154r7.9097751e+007 4.33e-001 1.00e+003  -5.9 1.69e+000   2.8 1.00e+000 5.70e-005f  1
 155r7.9235535e+007 4.30e-001 1.00e+003  -4.5 5.17e+000   2.3 1.00e+000 1.31e-003f  1
 156r8.9542222e+007 4.37e-001 9.98e+002  -0.3 5.68e+000   1.9 8.32e-002 1.83e-003f  1
 157r9.1496599e+007 4.39e-001 1.46e+003  -1.2 1.53e+000   2.3 4.32e-002 4.38e-003f  1
 158r9.3580953e+007 4.46e-001 3.67e+004   0.2 4.20e-001   2.7 1.00e+000 3.04e-002f  1
 159r8.1220969e+007 4.51e-001 2.64e+004   0.1 2.42e-001   2.2 1.00e+000 2.44e-001f  1
iter    objective    inf_pr   inf_du lg(mu)  ||d||  lg(rg) alpha_du alpha_pr  ls
 160r7.9820890e+007 4.69e-001 8.08e+003  -0.0 3.03e-001   1.8 1.00e+000 3.99e-001f  1
 161r8.0234638e+007 4.70e-001 4.90e+003  -0.3 3.15e-002   3.1 1.00e+000 9.79e-001f  1
 162r7.8476235e+007 4.70e-001 1.28e+003  -0.6 1.29e-002   3.5 1.00e+000 7.25e-001f  1
 163r7.7817736e+007 4.71e-001 9.44e+002  -1.0 3.47e-002   3.0 1.00e+000 4.12e-001f  1
 164r8.0081792e+007 4.70e-001 5.74e+003   0.1 1.48e-002   4.4 7.63e-001 5.65e-001f  1
 165r7.7678587e+007 4.70e-001 1.87e+003  -0.2 6.37e-003   3.9 1.00e+000 1.00e+000f  1
 166r7.9174289e+007 4.71e-001 2.11e+003  -0.2 9.46e-003   3.4 1.00e+000 1.00e+000f  1
 167r8.0976373e+007 4.74e-001 4.15e+003  -0.7 2.35e-002   2.9 1.00e+000 8.92e-001f  1
 168r8.7396114e+007 4.76e-001 2.51e+003  -0.9 5.26e-002   2.4 1.00e+000 6.50e-001f  1
 169r8.9252793e+007 4.76e-001 4.15e+003  -1.2 1.49e-001   2.0 1.00e+000 2.40e-001f  1
iter    objective    inf_pr   inf_du lg(mu)  ||d||  lg(rg) alpha_du alpha_pr  ls
 170r9.0612354e+007 4.74e-001 3.70e+003  -1.5 4.45e-001   1.5 1.00e+000 3.18e-001f  1
 171r9.8321337e+007 4.70e-001 2.14e+003  -1.7 1.47e-001   1.9 1.00e+000 4.80e-001f  1
 172r1.0127989e+008 4.68e-001 1.17e+003  -1.7 3.38e-001   1.4 1.00e+000 1.38e-001f  1
 173r1.1491279e+008 4.63e-001 1.40e+003  -2.1 1.07e-001   1.9 1.00e+000 7.06e-001f  1
 174r1.1592585e+008 4.60e-001 8.46e+002  -1.6 2.24e-001   1.4 1.00e+000 2.79e-001f  1
 175r1.1603151e+008 4.58e-001 6.40e+003  -1.7 4.20e-001   0.9 5.20e-001 2.13e-001f  1
 176r1.1326687e+008 4.55e-001 6.21e+003  -1.1 1.15e+000   0.4 2.30e-001 2.07e-001f  1
 177r1.0649899e+008 4.54e-001 4.89e+003  -1.6 5.80e-002   1.8 8.04e-001 4.55e-001f  1
 178r1.0115405e+008 4.49e-001 3.60e+003  -1.6 1.93e-001   1.3 5.79e-001 5.87e-001f  1
 179r9.9021164e+007 4.47e-001 2.63e+003  -1.9 7.27e-002   1.7 1.00e+000 4.24e-001f  1
iter    objective    inf_pr   inf_du lg(mu)  ||d||  lg(rg) alpha_du alpha_pr  ls
 180r9.6707893e+007 4.45e-001 1.00e+003  -2.4 2.69e-002   2.1 1.00e+000 7.73e-001f  1
 181r9.5675332e+007 4.42e-001 7.97e+002  -2.4 1.02e-001   1.7 1.00e+000 3.92e-001f  1
 182r9.4852632e+007 4.42e-001 6.84e+002  -3.0 2.76e-002   2.1 1.00e+000 2.46e-001f  1
 183r9.3174632e+007 4.39e-001 1.72e+003  -2.3 5.57e-002   1.6 1.00e+000 5.68e-001f  1
 184r9.2654116e+007 4.39e-001 1.37e+003  -1.9 1.64e-001   1.1 1.17e-001 2.03e-001f  1
 185r9.2390380e+007 4.39e-001 1.29e+003  -2.3 7.17e-002   1.6 1.00e+000 5.67e-002f  1
 186r9.1024557e+007 4.38e-001 8.04e+002  -2.3 1.82e-001   1.1 5.45e-001 2.83e-001f  1
 187r9.0467597e+007 4.39e-001 9.23e+002  -2.0 5.33e-001   0.6 3.99e-001 6.01e-002f  1
 188r8.6272727e+007 4.42e-001 6.72e+002  -2.6 2.71e-001   1.0 1.00e+000 4.17e-001f  1
 189r8.1947706e+007 4.54e-001 2.58e+002  -1.8 8.41e-001   0.6 1.00e+000 4.34e-001f  1
iter    objective    inf_pr   inf_du lg(mu)  ||d||  lg(rg) alpha_du alpha_pr  ls
 190r8.4746814e+007 4.59e-001 1.34e+002  -2.0 2.96e-001   1.0 6.81e-001 5.65e-001f  1
 191r9.0631049e+007 4.66e-001 1.40e+002  -2.0 5.60e-001   0.5 6.41e-001 3.43e-001f  1
 192r9.8135468e+007 4.87e-001 2.70e+002  -2.0 1.47e+000   0.0 9.28e-001 3.82e-001f  1
 193r1.1284728e+008 5.03e-001 1.06e+002  -2.0 6.69e-001   0.5 7.01e-001 6.90e-001f  1
 194r1.1692890e+008 5.18e-001 2.25e+002  -1.5 2.30e+000  -0.0 2.93e-001 2.07e-001f  1
 195r1.1734896e+008 5.21e-001 3.29e+002  -1.9 5.61e+000  -0.5 5.93e-002 3.13e-002f  1
 196r1.2158950e+008 5.25e-001 4.22e+002  -1.9 1.06e+000  -0.1 4.84e-001 1.55e-001f  1
 197r1.2177187e+008 5.27e-001 3.33e+002  -1.9 1.29e+001  -0.6 6.68e-003 2.61e-002f  1
 198r1.2174819e+008 5.28e-001 3.56e+002  -1.9 5.77e+002  -1.0 1.11e-003 6.06e-004f  1
 199r1.2178232e+008 5.38e-001 4.00e+002  -1.9 4.25e+000  -0.6 1.05e-001 8.24e-002f  1
iter    objective    inf_pr   inf_du lg(mu)  ||d||  lg(rg) alpha_du alpha_pr  ls
 200r1.1427862e+008 5.51e-001 4.51e+002  -1.9 1.67e+000  -0.2 4.93e-001 3.17e-001f  1
 201r1.0927519e+008 5.67e-001 9.07e+002  -1.0 3.91e+000  -0.7 3.39e-001 1.46e-001f  1
 202r9.3475775e+007 6.96e-001 7.02e+003  -1.6 3.02e-001   0.7 5.98e-001 1.00e+000f  1
 203r9.3624251e+007 6.79e-001 6.85e+003  -1.6 7.93e-001   0.2 2.93e-001 2.47e-002f  1
 204r9.9944425e+007 5.70e-001 1.21e+003  -1.6 1.95e-001   0.6 9.89e-001 8.24e-001f  1
 205r1.0148847e+008 5.74e-001 9.68e+002  -1.6 9.71e-001   0.1 3.84e-001 2.01e-001f  1
 206r9.9741966e+007 5.77e-001 5.49e+002  -1.6 2.13e-001   0.6 1.00e+000 4.31e-001f  1
 207r9.6882696e+007 5.80e-001 1.76e+002  -1.6 4.38e-001   0.1 7.40e-001 6.26e-001f  1
 208r1.0200152e+008 1.42e+000 1.60e+004  -1.6 9.54e-001  -0.4 8.47e-001 5.43e-001f  1
 209r9.9373510e+007 1.15e+000 1.28e+004  -1.6 3.64e-001   0.0 2.69e-001 2.38e-001f  1
iter    objective    inf_pr   inf_du lg(mu)  ||d||  lg(rg) alpha_du alpha_pr  ls
 210r8.5380806e+007 9.34e-001 8.96e+003  -1.6 2.28e-001   0.5 2.64e-001 1.00e+000h  1
 211r8.4962841e+007 9.23e-001 8.61e+003  -1.6 3.82e-001   1.8 8.87e-002 2.68e-002h  4
 212r8.3761702e+007 9.06e-001 7.83e+003  -1.6 3.62e-001   2.2 1.33e-001 8.15e-002h  2
 213r8.2490990e+007 8.15e-001 1.39e+004  -1.6 6.47e-002   2.7 1.25e-001 1.01e-001f  1
 214r8.0616752e+007 6.83e-001 1.43e+004  -1.6 8.38e-002   2.2 8.08e-001 1.62e-001H  1
 215r7.7182377e+007 5.83e-001 8.42e+003  -1.6 9.38e-002   1.7 3.22e-001 4.56e-001H  1
 216r7.5573381e+007 9.15e-001 2.20e+005  -1.6 7.40e-002   2.1 4.12e-001 5.35e-001f  1
 217r7.3766957e+007 6.59e-001 1.79e+005  -1.6 1.34e-001   1.6 4.40e-001 3.37e-001f  1
 218r7.3750478e+007 5.82e-001 1.51e+005  -1.6 7.60e-002   2.1 3.67e-001 2.10e-001h  3
 219r7.6545718e+007 5.82e-001 1.07e+005  -1.6 9.37e-002   2.5 1.08e-002 3.33e-001H  1
iter    objective    inf_pr   inf_du lg(mu)  ||d||  lg(rg) alpha_du alpha_pr  ls
 220r7.7714716e+007 5.82e-001 8.75e+004  -1.6 8.55e-002   2.0 1.00e+000 1.69e-001h  1
 221r8.0770865e+007 5.81e-001 1.75e+004  -1.6 8.42e-002   1.5 1.00e+000 7.77e-001f  1
 222r8.0168922e+007 5.79e-001 7.23e+003  -1.6 6.30e-002   1.1 1.00e+000 6.70e-001f  1
 223r8.0838026e+007 5.79e-001 6.25e+003  -1.6 1.15e-001   0.6 1.00e+000 1.20e-001f  1
 224r8.6896056e+007 5.80e-001 3.63e+003  -1.6 2.61e-001   0.1 1.00e+000 1.00e+000f  1
 225r1.0011380e+008 5.80e-001 3.36e+003  -1.6 3.77e-002   2.3 9.72e-001 6.65e-001f  1
 226r1.0017511e+008 5.80e-001 3.44e+003  -1.6 9.82e-003   2.8 1.00e+000 1.00e+000f  1
 227r1.0139160e+008 5.78e-001 7.55e+002  -2.8 1.16e-002   2.3 1.00e+000 8.11e-001f  1
 228r1.0110040e+008 5.78e-001 4.12e+002  -2.7 1.98e-002   1.8 1.00e+000 4.42e-001f  1
 229r9.9966524e+007 5.77e-001 4.12e+002  -3.2 6.33e-002   1.3 1.00e+000 3.98e-001f  1
iter    objective    inf_pr   inf_du lg(mu)  ||d||  lg(rg) alpha_du alpha_pr  ls
 230r9.8481567e+007 5.76e-001 4.93e+002  -3.5 1.63e-001   0.9 1.00e+000 3.06e-001f  1
 231r9.7846962e+007 5.75e-001 6.30e+002  -3.6 4.02e-001   0.4 1.00e+000 1.62e-001f  1
 232r9.7470079e+007 5.74e-001 3.90e+003  -2.8 1.50e+000  -0.1 6.70e-001 9.03e-002f  1
 233r9.7641849e+007 5.71e-001 3.72e+003  -8.8 2.13e+001  -0.6 1.01e-003 4.11e-003f  1
 234r9.2478270e+007 5.67e-001 9.42e+002  -1.9 4.71e-001  -0.1 8.15e-001 3.40e-001f  1
 235r8.9229466e+007 5.62e-001 8.10e+002  -2.2 1.60e+000  -0.6 3.87e-001 3.11e-001f  1
 236r9.1072195e+007 5.58e-001 1.42e+003  -2.2 2.98e+000  -1.1 3.80e-001 1.43e-001f  1
 237r9.5815668e+007 5.54e-001 1.05e+003  -2.2 8.87e-001  -0.7 6.94e-001 4.50e-001f  1
 238r8.9355537e+007 5.51e-001 4.13e+001  -2.2 2.95e-001  -0.2 1.00e+000 1.00e+000f  1
 239r8.6390854e+007 5.49e-001 4.94e+001  -2.2 9.08e-001  -0.7 7.08e-001 5.34e-001f  1
iter    objective    inf_pr   inf_du lg(mu)  ||d||  lg(rg) alpha_du alpha_pr  ls
 240r8.4459419e+007 5.49e-001 2.25e+002  -2.2 2.69e+000  -1.2 6.90e-001 2.48e-001f  1
 241r8.3906384e+007 5.51e-001 1.42e+002  -2.2 7.00e+000  -1.7 1.93e-001 2.44e-001f  1
 242r8.4946727e+007 5.51e-001 5.01e+000  -2.2 3.78e-001  -0.3 1.00e+000 1.00e+000f  1
 243r8.5046010e+007 5.51e-001 8.44e+001  -2.2 1.10e+000  -0.8 1.00e+000 6.15e-001f  1
 244r8.8077558e+007 5.49e-001 9.85e+001  -2.2 1.37e+000  -1.3 9.16e-001 5.68e-001f  1
 245r9.5710105e+007 5.45e-001 6.83e+001  -2.2 4.40e+000  -1.8 2.52e-001 2.22e-001f  1
 246r1.1730393e+008 6.74e-001 2.67e+002  -2.2 4.56e+000  -2.3 3.75e-001 2.62e-001f  1
 247r1.3081620e+008 5.44e-001 2.30e+002  -2.2 1.09e+001  -2.7 6.33e-001 3.23e-001f  1
 248r1.2272512e+008 5.43e-001 1.14e+002  -2.2 4.39e+000  -2.3 1.00e+000 8.01e-001h  1
 249r1.0704677e+008 5.47e-001 1.25e+002  -1.9 9.30e+000  -2.8 6.80e-001 8.45e-001f  1
iter    objective    inf_pr   inf_du lg(mu)  ||d||  lg(rg) alpha_du alpha_pr  ls
 250r1.0847272e+008 5.47e-001 9.36e+000  -2.0 5.38e-001  -1.5 1.00e+000 1.00e+000f  1
 251r1.0577757e+008 5.47e-001 2.46e+000  -2.0 1.94e-001  -1.0 1.00e+000 1.00e+000h  1
 252r1.0625027e+008 5.46e-001 5.90e+001  -2.7 5.36e-001  -1.5 9.99e-001 8.43e-001f  1
 253r1.0728885e+008 5.46e-001 1.30e+003  -3.0 1.74e+000  -2.0 1.00e+000 2.91e-001f  1
 254r1.0859566e+008 5.46e-001 3.61e+002  -3.0 5.36e+000  -2.5 1.00e+000 4.79e-001f  1
 255r1.0953146e+008 5.47e-001 1.89e+002  -2.6 1.02e+001  -2.9 1.00e+000 1.83e-001f  1
 256r1.1104785e+008 5.47e-001 1.34e+002  -2.7 1.74e+001  -3.4 8.30e-001 4.36e-001h  1
 257r1.1108697e+008 5.47e-001 2.40e+000  -2.7 7.48e+000  -3.0 1.00e+000 1.00e+000h  1
 258r1.1009210e+008 5.47e-001 3.29e+002  -2.9 1.21e+001  -3.5 9.07e-001 3.39e-001h  1
 259r1.1001556e+008 5.46e-001 4.22e+002  -3.2 3.11e+001    -  7.35e-001 2.03e-001h  1
iter    objective    inf_pr   inf_du lg(mu)  ||d||  lg(rg) alpha_du alpha_pr  ls
 260r1.0957764e+008 5.46e-001 2.93e+002  -3.8 2.62e+001    -  4.73e-001 3.40e-001f  1
 261r1.0938254e+008 5.46e-001 2.32e+002  -9.0 5.95e+000  -3.9 2.74e-001 1.99e-001h  1
 262r1.0938293e+008 5.46e-001 2.10e+002  -5.1 1.52e-001  -0.8 6.49e-001 2.70e-002h  1
 263r1.0939138e+008 5.46e-001 6.45e+001  -3.4 2.78e-001  -1.3 1.00e+000 6.73e-001f  1
 264r1.0961219e+008 5.46e-001 4.85e+001  -3.3 7.46e+000    -  1.00e+000 8.32e-001h  1
 265r1.0984107e+008 5.46e-001 5.52e+001  -4.0 7.72e+000    -  9.24e-001 4.10e-001h  1
 266r1.1019059e+008 5.46e-001 4.94e+001  -3.4 6.22e-001  -1.8 1.00e+000 9.01e-001h  1
 267r1.1081907e+008 5.46e-001 1.21e+001  -3.9 4.28e+000    -  1.00e+000 9.14e-001f  1
 268r1.1102287e+008 5.46e-001 8.43e+000  -3.4 1.45e-001  -1.3 1.00e+000 9.46e-001f  1
 269r1.1122238e+008 5.46e-001 1.30e+001  -4.1 8.86e-001    -  1.00e+000 8.41e-001f  1
iter    objective    inf_pr   inf_du lg(mu)  ||d||  lg(rg) alpha_du alpha_pr  ls
 270r1.1125339e+008 5.46e-001 5.04e+002  -3.1 1.85e+000    -  8.13e-001 1.38e-001f  1
 271r1.1146067e+008 5.46e-001 4.02e+002  -3.1 5.52e-001    -  5.53e-001 1.00e+000f  1
 272r1.1138877e+008 5.46e-001 1.74e+002  -3.2 5.02e-001    -  4.96e-001 6.00e-001h  1
 273r1.1027305e+008 5.46e-001 3.54e+000  -3.4 8.18e-001    -  1.00e+000 1.00e+000f  1
 274r1.0964968e+008 5.45e-001 1.30e+001  -4.1 2.89e-001    -  1.00e+000 7.94e-001f  1
 275r1.1001224e+008 5.45e-001 2.12e+001  -4.5 1.24e-001  -1.8 1.00e+000 8.71e-001f  1
 276r1.1036212e+008 5.45e-001 7.10e+001  -5.0 6.31e-002  -1.4 1.00e+000 6.85e-001f  1
 277r1.1060980e+008 5.45e-001 2.51e+001  -5.3 3.35e-002  -1.0 1.00e+000 8.62e-001f  1
 278r1.1066324e+008 5.45e-001 1.33e+002  -5.3 1.41e-001  -1.4 1.00e+000 4.06e-001h  1
 279r1.1078373e+008 5.45e-001 2.14e+001  -5.9 4.92e-002  -1.0 1.00e+000 8.95e-001h  1
iter    objective    inf_pr   inf_du lg(mu)  ||d||  lg(rg) alpha_du alpha_pr  ls
 280r1.1082180e+008 5.45e-001 7.37e+001  -5.6 3.90e-001  -1.5 1.00e+000 7.44e-001h  1
 281r1.1115824e+008 5.46e-001 2.03e+000  -5.7 1.54e-001  -1.1 1.00e+000 1.00e+000h  1
 282r1.1119523e+008 5.46e-001 4.77e+002  -5.0 1.17e+000  -1.5 8.19e-001 1.62e-001f  1
 283r1.1119902e+008 5.46e-001 1.16e+002  -5.3 2.26e-001  -1.1 1.00e+000 2.55e-002h  1
 284r1.1121057e+008 5.46e-001 3.62e+002  -5.3 9.64e-001  -1.6 1.00e+000 9.43e-002f  1
 285r1.1120444e+008 5.46e-001 1.98e+002  -5.3 1.37e+000  -2.1 7.33e-001 3.37e-001f  1
 286r1.1112259e+008 5.46e-001 1.02e+002  -5.3 1.23e+000    -  5.08e-001 2.30e-001f  1
 287r1.1102714e+008 5.46e-001 3.69e+001  -5.3 7.92e-001    -  1.00e+000 3.05e-001f  1
 288r1.1080851e+008 5.46e-001 3.59e+000  -5.3 5.41e-001    -  8.17e-001 1.00e+000f  1
 289r1.1080907e+008 5.46e-001 4.03e-003  -5.3 5.97e-002    -  1.00e+000 1.00e+000h  1
iter    objective    inf_pr   inf_du lg(mu)  ||d||  lg(rg) alpha_du alpha_pr  ls
 290r1.1080689e+008 5.46e-001 4.47e-004  -5.3 5.10e-003    -  1.00e+000 1.00e+000h  1
 291r1.1080687e+008 5.46e-001 1.46e+001  -6.5 2.23e-002    -  1.00e+000 8.65e-001f  1
 292r1.1080693e+008 5.46e-001 4.14e+000  -5.9 3.63e-001    -  1.00e+000 5.01e-001h  1
 293r1.1077615e+008 5.46e-001 1.90e-002  -6.0 7.64e-002    -  1.00e+000 1.00e+000h  1
 294r1.1077011e+008 5.46e-001 1.83e+000  -7.2 4.15e-002    -  1.00e+000 9.29e-001h  1
 295r1.1076817e+008 5.46e-001 2.96e+000  -7.8 7.96e-001    -  1.00e+000 2.79e-001h  1
 296r1.1076797e+008 5.46e-001 7.32e+000  -8.4 2.06e-001    -  1.00e+000 1.42e-002h  1
 297r1.1076314e+008 5.46e-001 6.10e+000  -8.9 4.45e-001    -  1.00e+000 3.53e-001h  1
 298r1.1073398e+008 5.46e-001 1.24e+000  -7.1 1.50e-001    -  1.00e+000 8.18e-001H  1
 299r1.1072744e+008 5.46e-001 3.05e-002  -6.3 1.11e-001    -  1.00e+000 1.00e+000f  1
iter    objective    inf_pr   inf_du lg(mu)  ||d||  lg(rg) alpha_du alpha_pr  ls
 300r1.1073400e+008 5.46e-001 3.49e+001  -5.1 1.98e-001    -  8.21e-001 1.00e+000f  1
 301r1.1075185e+008 5.46e-001 2.23e-001  -5.3 3.76e-001    -  1.00e+000 1.00e+000h  1
 302r1.1082804e+008 5.46e-001 3.49e-002  -5.3 4.25e-002    -  1.00e+000 1.00e+000h  1
 303r1.1081429e+008 5.46e-001 3.81e-003  -5.3 3.52e-003    -  1.00e+000 1.00e+000h  1
 304r1.1081419e+008 5.46e-001 1.92e+001  -6.5 2.46e-002    -  1.00e+000 8.46e-001f  1
 305r1.1081423e+008 5.46e-001 1.24e+001  -6.2 3.52e-001    -  7.32e-001 4.26e-001h  1
 306r1.1079165e+008 5.46e-001 3.03e+000  -6.2 9.13e-002    -  1.00e+000 7.77e-001f  1
 307r1.1076058e+008 5.46e-001 2.38e-002  -6.2 1.84e-002    -  1.00e+000 1.00e+000f  1
 308r1.1075378e+008 5.46e-001 8.13e-001  -7.6 6.39e-003    -  1.00e+000 9.47e-001h  1
 309r1.1075370e+008 5.46e-001 5.40e+000  -7.5 1.29e+000    -  1.00e+000 1.04e-001h  1
iter    objective    inf_pr   inf_du lg(mu)  ||d||  lg(rg) alpha_du alpha_pr  ls
 310r1.1075363e+008 5.46e-001 5.79e+000  -7.5 1.42e-001    -  1.00e+000 2.08e-002h  1
 311r1.1075005e+008 5.46e-001 7.28e-002  -7.5 1.39e-001    -  1.00e+000 1.00e+000f  1
 312r1.1072942e+008 5.46e-001 1.78e-003  -7.5 7.25e-004    -  1.00e+000 1.00e+000h  1
 313r1.1072935e+008 5.46e-001 8.68e-004  -9.0 3.41e-003    -  1.00e+000 1.00e+000h  1
Reallocating memory for MA57: lfact (503669)
 314r1.1072935e+008 5.46e-001 2.96e+000  -9.0 6.96e-001    -  1.00e+000 1.02e-001h  1
 315r1.1072911e+008 5.46e-001 2.34e+000  -9.0 9.58e-002    -  1.00e+000 3.44e-001h  1
 316r1.1072684e+008 5.46e-001 1.34e-002  -9.0 6.28e-002    -  1.00e+000 1.00e+000f  1
 317r1.1072333e+008 5.46e-001 2.27e-004  -9.0 2.89e-004    -  1.00e+000 1.00e+000h  1
 318r1.1072331e+008 5.46e-001 1.63e-006  -9.0 1.60e-006    -  1.00e+000 1.00e+000H  1
 319r1.1072331e+008 5.46e-001 9.07e-006  -9.0 4.69e-008    -  1.00e+000 1.00e+000H  1
iter    objective    inf_pr   inf_du lg(mu)  ||d||  lg(rg) alpha_du alpha_pr  ls
 320r1.1072331e+008 5.46e-001 9.05e-006  -9.0 2.47e-008    -  1.00e+000 1.00e+000h  1
 321r1.1072331e+008 5.46e-001 8.92e-006  -9.0 1.40e-008    -  1.00e+000 1.00e+000h  1
 322r1.1072331e+008 5.46e-001 1.75e-005  -9.0 1.49e-009    -  1.00e+000 5.00e-001h  2
 323r1.1072331e+008 5.46e-001 8.93e-006  -9.0 5.73e-009    -  1.00e+000 1.00e+000H  1
 324r1.1072331e+008 5.46e-001 7.03e-006  -9.0 6.28e-009    -  1.00e+000 1.00e+000H  1
 325r1.1072331e+008 5.46e-001 7.03e-006  -9.0 5.01e-009    -  1.00e+000 1.00e+000h  1
 326r1.1072331e+008 5.46e-001 1.70e-005  -9.0 1.96e-009    -  1.00e+000 6.25e-002h  5
 327r1.1072331e+008 5.46e-001 8.98e-006  -9.0 8.09e-009    -  1.00e+000 1.00e+000H  1
 328r1.1072331e+008 5.46e-001 8.88e-006  -9.0 1.44e-008    -  1.00e+000 1.00e+000H  1
 329r1.1072331e+008 5.46e-001 5.18e-007  -9.0 1.24e-008    -  1.00e+000 1.00e+000H  1
iter    objective    inf_pr   inf_du lg(mu)  ||d||  lg(rg) alpha_du alpha_pr  ls
 330r1.1072331e+008 5.46e-001 6.95e-006  -9.0 3.85e-009    -  1.00e+000 1.00e+000h  1
 331r1.1072331e+008 5.46e-001 7.06e-006  -9.0 6.83e-009    -  1.00e+000 6.25e-002h  5
 332r1.1072331e+008 5.46e-001 8.16e-006  -9.0 8.09e-009    -  1.00e+000 6.25e-002h  5
 333r1.1072331e+008 5.46e-001 8.79e-006  -9.0 1.47e-008    -  1.00e+000 1.00e+000H  1
 334r1.1072331e+008 5.46e-001 7.04e-006  -9.0 5.98e-009    -  1.00e+000 1.00e+000h  1
 335r1.1072331e+008 5.46e-001 7.02e-006  -9.0 8.64e-009    -  1.00e+000 1.00e+000H  1
 336r1.1072331e+008 5.46e-001 8.98e-006  -9.0 8.10e-009    -  1.00e+000 1.00e+000H  1
 337r1.1072331e+008 5.46e-001 8.91e-006  -9.0 1.17e-008    -  1.00e+000 1.00e+000H  1
 338r1.1072331e+008 5.46e-001 5.31e-007  -9.0 4.98e-009    -  1.00e+000 1.00e+000H  1
 339r1.1072331e+008 5.46e-001 9.08e-006  -9.0 6.82e-009    -  1.00e+000 1.00e+000H  1
iter    objective    inf_pr   inf_du lg(mu)  ||d||  lg(rg) alpha_du alpha_pr  ls
 340r1.1072331e+008 5.46e-001 8.96e-006  -9.0 2.60e-008    -  1.00e+000 1.00e+000h  1
 341r1.1072331e+008 5.46e-001 6.98e-006  -9.0 6.95e-009    -  1.00e+000 1.00e+000h  1
 342r1.1072331e+008 5.46e-001 1.84e-005  -9.0 2.79e-008    -  1.00e+000 2.50e-001h  3
 343r1.1072331e+008 5.46e-001 6.95e-006  -9.0 3.88e-009    -  1.00e+000 1.00e+000h  1
 344r1.1072331e+008 5.46e-001 1.59e-005  -9.0 4.12e-009    -  1.00e+000 1.56e-002h  7
 345r1.1072331e+008 5.46e-001 3.54e-006  -9.0 2.61e-009    -  1.00e+000 2.50e-001h  3
 346r1.1072331e+008 5.46e-001 6.37e-007  -9.0 5.32e-009    -  1.00e+000 1.00e+000H  1
 347r1.1072331e+008 5.46e-001 7.03e-006  -9.0 2.33e-009    -  1.00e+000 2.50e-001h  3
 348r1.1072331e+008 5.46e-001 4.87e-007  -9.0 1.84e-008    -  1.00e+000 1.00e+000H  1
 349r1.1072331e+008 5.46e-001 8.91e-006  -9.0 1.74e-008    -  1.00e+000 1.00e+000H  1
iter    objective    inf_pr   inf_du lg(mu)  ||d||  lg(rg) alpha_du alpha_pr  ls
 350r1.1072331e+008 5.46e-001 2.02e-005  -9.0 1.75e-008    -  1.00e+000 7.63e-006h 18
 351r1.1072331e+008 5.46e-001 1.99e-005  -9.0 1.07e-008    -  1.00e+000 2.44e-004h 13
 352r1.1072331e+008 5.46e-001 8.79e-006  -9.0 1.18e-008    -  1.00e+000 1.00e+000H  1
 353r1.1072331e+008 5.46e-001 2.96e-006  -9.0 7.19e-009    -  1.00e+000 5.00e-001h  2
 354r1.1072331e+008 5.46e-001 1.06e-006  -9.0 6.15e-009    -  1.00e+000 1.00e+000H  1

Number of Iterations....: 354

                                   (scaled)                 (unscaled)
Objective...............:  1.1072331199965182e+001   1.1072331200000022e+008
Dual infeasibility......:  9.9999998504268675e+001   9.9999998504583335e+008
Constraint violation....:  1.8133149200609139e-001   5.4573502914372019e-001
Complementarity.........:  1.0004120627855139e-009   1.0004120627886618e-002
Overall NLP error.......:  9.9999998504268675e+001   9.9999998504583335e+008


Number of objective function evaluations             = 851
Number of objective gradient evaluations             = 115
Number of equality constraint evaluations            = 851
Number of inequality constraint evaluations          = 851
Number of equality constraint Jacobian evaluations   = 367
Number of inequality constraint Jacobian evaluations = 367
Number of Lagrangian Hessian evaluations             = 355
Total CPU secs in IPOPT (w/o function evaluations)   =     20.923
Total CPU secs in NLP function evaluations           =     56.114

EXIT: Converged to a point of local infeasibility. Problem may be infeasible.
